p cnf 86 602
-86 0
-86 -80 -37 -10 0
-86 -49 -43 -16 0
-86 -43 -37 0
-86 -43 -8 0
-86 -37 -2 0
-86 -16 -10 0
-86 -16 -8 0
-86 -10 -2 0
-86 -8 0
-86 -8 -2 0
-86 -2 0
-85 0
-85 -79 -36 -9 0
-85 -48 -42 -15 0
-85 -42 -36 0
-85 -42 -7 0
-85 -36 -1 0
-85 -15 -9 0
-85 -15 -7 0
-85 -9 -1 0
-85 -7 0
-85 -7 -1 0
-85 -1 0
-84 0
-84 -78 -35 -8 0
-84 -47 -41 -14 0
-84 -43 0
-84 -43 -35 0
-84 -43 -8 0
-84 -43 -6 0
-84 -41 -35 0
-84 -41 -6 0
-84 -14 -8 0
-84 -14 -6 0
-84 -6 0
-83 0
-83 -77 -34 -7 0
-83 -46 -40 -13 0
-83 -42 0
-83 -42 -34 0
-83 -42 -7 0
-83 -42 -5 0
-83 -40 -34 0
-83 -40 -5 0
-83 -13 -7 0
-83 -13 -5 0
-83 -5 0
-82 0
-82 -76 -33 -6 0
-82 -45 -39 -12 0
-82 -41 0
-82 -41 -33 0
-82 -41 -6 0
-82 -41 -4 0
-82 -39 -33 0
-82 -39 -4 0
-82 -12 -6 0
-82 -12 -4 0
-82 -4 0
-81 0
-81 -75 -32 -5 0
-81 -44 -38 -11 0
-81 -40 0
-81 -40 -32 0
-81 -40 -5 0
-81 -40 -3 0
-81 -38 -32 0
-81 -38 -3 0
-81 -11 -5 0
-81 -11 -3 0
-81 -3 0
-80 0
-80 -74 -31 -4 0
-80 -39 0
-80 -39 -31 0
-80 -39 -4 0
-80 -39 -2 0
-80 -37 -31 0
-80 -37 -2 0
-80 -10 -4 0
-80 -10 -2 0
-80 -2 0
-79 0
-79 -73 -30 -3 0
-79 -38 0
-79 -38 -30 0
-79 -38 -3 0
-79 -38 -1 0
-79 -36 -30 0
-79 -36 -1 0
-79 -9 -3 0
-79 -9 -1 0
-79 -1 0
-78 0
-78 -72 -29 -2 0
-78 -43 0
-78 -43 -37 0
-78 -43 -35 0
-78 -43 -8 0
-78 -37 0
-78 -37 -29 0
-78 -37 -2 0
-78 -35 -29 0
-78 -8 -2 0
-77 0
-77 -71 -28 -1 0
-77 -42 0
-77 -42 -36 0
-77 -42 -34 0
-77 -42 -7 0
-77 -36 0
-77 -36 -28 0
-77 -36 -1 0
-77 -34 -28 0
-77 -7 -1 0
-76 0
-76 -70 -43 -27 0
-76 -43 -35 0
-76 -43 -6 0
-76 -41 0
-76 -41 -35 0
-76 -41 -33 0
-76 -41 -6 0
-76 -35 0
-76 -35 -27 0
-76 -33 -27 0
-75 0
-75 -69 -42 -26 0
-75 -42 -34 0
-75 -42 -5 0
-75 -40 0
-75 -40 -34 0
-75 -40 -32 0
-75 -40 -5 0
-75 -34 0
-75 -34 -26 0
-75 -32 -26 0
-74 0
-74 -68 -41 -25 0
-74 -41 -33 0
-74 -41 -4 0
-74 -39 0
-74 -39 -33 0
-74 -39 -31 0
-74 -39 -4 0
-74 -33 0
-74 -33 -25 0
-74 -31 -25 0
-73 0
-73 -67 -40 -24 0
-73 -40 -32 0
-73 -40 -3 0
-73 -38 0
-73 -38 -32 0
-73 -38 -30 0
-73 -38 -3 0
-73 -32 0
-73 -32 -24 0
-73 -30 -24 0
-72 0
-72 -66 -39 -23 0
-72 -39 -31 0
-72 -39 -2 0
-72 -37 0
-72 -37 -31 0
-72 -37 -29 0
-72 -37 -2 0
-72 -31 0
-72 -31 -23 0
-72 -29 -23 0
-71 0
-71 -65 -38 -22 0
-71 -38 -30 0
-71 -38 -1 0
-71 -36 0
-71 -36 -30 0
-71 -36 -28 0
-71 -36 -1 0
-71 -30 0
-71 -30 -22 0
-71 -28 -22 0
-70 0
-70 -64 -37 -21 0
-70 -43 -37 0
-70 -43 -35 0
-70 -37 -29 0
-70 -35 0
-70 -35 -29 0
-70 -35 -27 0
-70 -29 0
-70 -29 -21 0
-70 -27 -21 0
-69 0
-69 -63 -36 -20 0
-69 -42 -36 0
-69 -42 -34 0
-69 -36 -28 0
-69 -34 0
-69 -34 -28 0
-69 -34 -26 0
-69 -28 0
-69 -28 -20 0
-69 -26 -20 0
-68 0
-68 -62 -35 -19 0
-68 -41 -35 0
-68 -41 -33 0
-68 -35 -27 0
-68 -33 0
-68 -33 -27 0
-68 -33 -25 0
-68 -27 0
-68 -27 -19 0
-68 -25 -19 0
-67 0
-67 -61 -34 -18 0
-67 -40 -34 0
-67 -40 -32 0
-67 -34 -26 0
-67 -32 0
-67 -32 -26 0
-67 -32 -24 0
-67 -26 0
-67 -26 -18 0
-67 -24 -18 0
-66 0
-66 -60 -33 -17 0
-66 -39 -33 0
-66 -39 -31 0
-66 -33 -25 0
-66 -31 0
-66 -31 -25 0
-66 -31 -23 0
-66 -25 0
-66 -25 -17 0
-66 -23 -17 0
-65 0
-65 -59 -32 -16 0
-65 -38 -32 0
-65 -38 -30 0
-65 -32 -24 0
-65 -30 0
-65 -30 -24 0
-65 -30 -22 0
-65 -24 0
-65 -24 -16 0
-65 -22 -16 0
-64 0
-64 -58 -31 -15 0
-64 -37 -31 0
-64 -37 -29 0
-64 -31 -23 0
-64 -29 0
-64 -29 -23 0
-64 -29 -21 0
-64 -23 0
-64 -23 -15 0
-64 -21 -15 0
-63 0
-63 -57 -30 -14 0
-63 -36 -30 0
-63 -36 -28 0
-63 -30 -22 0
-63 -28 0
-63 -28 -22 0
-63 -28 -20 0
-63 -22 0
-63 -22 -14 0
-63 -20 -14 0
-62 0
-62 -56 -29 -13 0
-62 -35 -29 0
-62 -35 -27 0
-62 -29 -21 0
-62 -27 0
-62 -27 -21 0
-62 -27 -19 0
-62 -21 0
-62 -21 -13 0
-62 -19 -13 0
-61 0
-61 -55 -28 -12 0
-61 -34 -28 0
-61 -34 -26 0
-61 -28 -20 0
-61 -26 0
-61 -26 -20 0
-61 -26 -18 0
-61 -20 0
-61 -20 -12 0
-61 -18 -12 0
-60 0
-60 -54 -27 -11 0
-60 -33 -27 0
-60 -33 -25 0
-60 -27 -19 0
-60 -25 0
-60 -25 -19 0
-60 -25 -17 0
-60 -19 0
-60 -19 -11 0
-60 -17 -11 0
-59 0
-59 -53 -26 -10 0
-59 -32 -26 0
-59 -32 -24 0
-59 -26 -18 0
-59 -24 0
-59 -24 -18 0
-59 -24 -16 0
-59 -18 0
-59 -18 -10 0
-59 -16 -10 0
-58 0
-58 -52 -25 -9 0
-58 -31 -25 0
-58 -31 -23 0
-58 -25 -17 0
-58 -23 0
-58 -23 -17 0
-58 -23 -15 0
-58 -17 0
-58 -17 -9 0
-58 -15 -9 0
-57 0
-57 -51 -24 -8 0
-57 -30 -24 0
-57 -30 -22 0
-57 -24 -16 0
-57 -22 0
-57 -22 -16 0
-57 -22 -14 0
-57 -16 0
-57 -16 -8 0
-57 -14 -8 0
-56 0
-56 -50 -23 -7 0
-56 -29 -23 0
-56 -29 -21 0
-56 -23 -15 0
-56 -21 0
-56 -21 -15 0
-56 -21 -13 0
-56 -15 0
-56 -15 -7 0
-56 -13 -7 0
-55 0
-55 -49 -22 -6 0
-55 -28 -22 0
-55 -28 -20 0
-55 -22 -14 0
-55 -20 0
-55 -20 -14 0
-55 -20 -12 0
-55 -14 0
-55 -14 -6 0
-55 -12 -6 0
-54 0
-54 -48 -21 -5 0
-54 -27 -21 0
-54 -27 -19 0
-54 -21 -13 0
-54 -19 0
-54 -19 -13 0
-54 -19 -11 0
-54 -13 0
-54 -13 -5 0
-54 -11 -5 0
-53 0
-53 -47 -20 -4 0
-53 -26 -20 0
-53 -26 -18 0
-53 -20 -12 0
-53 -18 0
-53 -18 -12 0
-53 -18 -10 0
-53 -12 0
-53 -12 -4 0
-53 -10 -4 0
-52 0
-52 -46 -19 -3 0
-52 -25 -19 0
-52 -25 -17 0
-52 -19 -11 0
-52 -17 0
-52 -17 -11 0
-52 -17 -9 0
-52 -11 0
-52 -11 -3 0
-52 -9 -3 0
-51 0
-51 -45 -18 -2 0
-51 -24 -18 0
-51 -24 -16 0
-51 -18 -10 0
-51 -16 0
-51 -16 -10 0
-51 -16 -8 0
-51 -10 0
-51 -10 -2 0
-51 -8 -2 0
-50 0
-50 -44 -17 -1 0
-50 -23 -17 0
-50 -23 -15 0
-50 -17 -9 0
-50 -15 0
-50 -15 -9 0
-50 -15 -7 0
-50 -9 0
-50 -9 -1 0
-50 -7 -1 0
-49 0
-49 -43 -8 0
-49 -43 -6 0
-49 -22 -16 0
-49 -22 -14 0
-49 -16 -8 0
-49 -14 0
-49 -14 -8 0
-49 -14 -6 0
-49 -8 0
-48 0
-48 -42 -7 0
-48 -42 -5 0
-48 -21 -15 0
-48 -21 -13 0
-48 -15 -7 0
-48 -13 0
-48 -13 -7 0
-48 -13 -5 0
-48 -7 0
-47 0
-47 -41 -6 0
-47 -41 -4 0
-47 -20 -14 0
-47 -20 -12 0
-47 -14 -6 0
-47 -12 0
-47 -12 -6 0
-47 -12 -4 0
-47 -6 0
-46 0
-46 -40 -5 0
-46 -40 -3 0
-46 -19 -13 0
-46 -19 -11 0
-46 -13 -5 0
-46 -11 0
-46 -11 -5 0
-46 -11 -3 0
-46 -5 0
-45 0
-45 -39 -4 0
-45 -39 -2 0
-45 -18 -12 0
-45 -18 -10 0
-45 -12 -4 0
-45 -10 0
-45 -10 -4 0
-45 -10 -2 0
-45 -4 0
-44 0
-44 -38 -3 0
-44 -38 -1 0
-44 -17 -11 0
-44 -17 -9 0
-44 -11 -3 0
-44 -9 0
-44 -9 -3 0
-44 -9 -1 0
-44 -3 0
-43 -40 -37 0
-43 -40 -3 0
-43 -6 -3 0
-42 -39 -36 0
-42 -39 -2 0
-42 -5 -2 0
-41 -38 -35 0
-41 -38 -1 0
-41 -4 -1 0
-40 -37 -34 0
-39 -36 -33 0
-38 -35 -32 0
-37 -34 -31 0
-36 -33 -30 0
-35 -32 -29 0
-34 -31 -28 0
-33 -30 -27 0
-32 -29 -26 0
-31 -28 -25 0
-30 -27 -24 0
-29 -26 -23 0
-28 -25 -22 0
-27 -24 -21 0
-26 -23 -20 0
-25 -22 -19 0
-24 -21 -18 0
-23 -20 -17 0
-22 -19 -16 0
-21 -18 -15 0
-20 -17 -14 0
-19 -16 -13 0
-18 -15 -12 0
-17 -14 -11 0
-16 -13 -10 0
-15 -12 -9 0
-14 -11 -8 0
-13 -10 -7 0
-12 -9 -6 0
-11 -8 -5 0
-10 -7 -4 0
-9 -6 -3 0
-8 -5 -2 0
-7 -4 -1 0
1 14 0
1 20 0
1 25 0
1 31 0
2 15 0
2 21 0
2 26 0
2 32 0
3 16 0
3 22 0
3 27 0
3 33 0
4 17 0
4 23 0
4 28 0
4 34 0
5 18 0
5 24 0
5 29 0
5 35 0
6 19 0
6 25 0
6 30 0
6 36 0
7 20 0
7 26 0
7 31 0
7 37 0
8 21 0
8 27 0
8 32 0
8 38 0
9 22 0
9 28 0
9 33 0
9 39 0
10 23 0
10 29 0
10 34 0
10 40 0
11 24 0
11 30 0
11 35 0
11 41 0
12 25 0
12 31 0
12 36 0
12 42 0
13 26 0
13 32 0
13 37 0
13 43 0
14 27 0
14 33 0
14 38 0
15 28 0
15 34 0
15 39 0
16 29 0
16 35 0
16 40 0
17 30 0
17 36 0
17 41 0
18 31 0
18 37 0
18 42 0
19 32 0
19 38 0
19 43 0
20 33 0
20 39 0
21 34 0
21 40 0
22 35 0
22 41 0
23 36 0
23 42 0
24 37 0
24 43 0
25 38 0
26 39 0
27 40 0
28 41 0
29 42 0
30 43 0
